benchmarks/bfuzz0/76629629272052924149553672756611231.smt2
(set-logic QF_FP)
(declare-const x0 (_ FloatingPoint 11 53))
(declare-const x1 (_ FloatingPoint 11 53))
(declare-const x2 (_ FloatingPoint 11 53))
(declare-const x3 (_ FloatingPoint 11 53))
(declare-const x4 (_ FloatingPoint 11 53))
(declare-const x5 (_ FloatingPoint 11 53))
(assert (fp.eq (fp.neg (fp.mul RNE x5 x1)) (fp.sub RNE (fp.add RNE x5 x0) (fp.neg x2))))
(assert (fp.leq (fp.mul RNE (fp.mul RNE x4 x3) (fp.add RNE x3 x2)) (fp.div RNE (fp.sub RNE x2 x3) (fp.div RNE x3 x0))))
(check-sat)
