db/data/76629629272052924149553672756611231.z3.out
-------------------
2500.095823904
